%chk=ene-one-connect.chk
%nprocshared=8
%mem=8GB
# 6-31g(d) geom=connectivity m062x scf=tight

Title Card

0 1
 C                  0.53787946   -5.00049081   -5.51939953
 C                 -0.96467311   -5.00067096   -5.49715436
 C                  0.96127687   -5.00043164   -6.79479862
 H                  1.15528104   -5.00040331   -4.62948562
 C                 -1.32832259   -5.00073898   -6.95520569
 H                 -1.36679669   -4.12164671   -4.97463810
 H                 -1.36656620   -5.87979571   -4.97462731
 C                 -0.20406093   -5.00063477   -7.69138160
 H                  1.99261300   -5.00030199   -7.12885212
 H                 -2.34676195   -5.00086749   -7.32387251
 H                 -0.14554118   -5.00066272   -8.77388898
 C                  0.00000000    0.00000000    0.00000000
 C                  0.00000000    0.00000000    1.53287841
 C                  1.41859493    0.00000000   -0.43903119
 C                  1.48131892    0.00020857    1.94074536
 H                 -0.54370769    0.87970694    1.88745926
 H                 -0.54341082   -0.87990807    1.88742659
 O                 -0.98066217   -0.00019332   -0.70589338
 C                  2.22484016    0.00015714    0.62589100
 H                  1.70706610   -0.00009729   -1.48302708
 H                  1.75426201    0.87765177    2.53738414
 H                  1.75445826   -0.87705121    2.53756524
 H                  3.31011177    0.00022448    0.58546987

 1 2 1.0 3 3.0 4 1.0
 2 5 1.0 6 2.0 7 1.0
 3 8 1.0 9 1.0
 4
 5 8 2.0 10 1.0
 6
 7
 8 11 1.0
 9
 10
 11
 12 13 1.0 14 1.0 18 2.0
 13 15 1.0 16 2.0 17 1.0
 14 19 2.0 20 1.0
 15 19 1.0 21 2.0 22 1.0
 16
 17
 18
 19 23 1.0
 20
 21
 22
 23

